
  12    4
  10   10   10   10

   0   0   0   0   0   3 2 3 5 
   5  10  10  10  10   2 7 4 
  10  10  10  10  10   2 7 4 
   7  10  10  10  10   2 11 6 
   5  10  10  10  10   2 11 6 
   3  10  10  10  10   2 10 8 
  10  10  10  10  10   2 10 8 
   8  10  10  10  10   1 9 
   1  10  10  10  10   1 12
   8  10  10  10  10   1 12
   4  10  10  10  10   1 12
   0   0   0   0   0   0 
